% Auto-generated by scripts/generate_dzn.py
% problem_type   = nonogram
% instance       = nonogram_45
% source_json    = instances_json/0_low_blowup/nonogram_45.json
% blowup         = 1.0683760683760684
% representation = DFA

mode = 0;

height = 20;
width = 20;
Q = 21;
S = 2;
row_q0 = [1, 1, 1, 1, 1, 1, 1, 1, 1, 1, 1, 1, 1, 1, 1, 1, 1, 1, 1, 1];
row_F = [{11}, {14}, {19}, {12}, {17}, {17}, {11}, {14}, {14}, {15}, {13}, {15}, {17}, {16}, {14}, {19}, {19}, {12}, {15}, {14}];
col_q0 = [1, 1, 1, 1, 1, 1, 1, 1, 1, 1, 1, 1, 1, 1, 1, 1, 1, 1, 1, 1];
col_F = [{14}, {13}, {20}, {18}, {9}, {13}, {12}, {15}, {11}, {15}, {19}, {14}, {11}, {12}, {17}, {14}, {12}, {13}, {18}, {17}];
row_d_dfa = array3d(1..20, 1..21, 1..2, [
  % k = 1
    1, 2,
    12, 3,
    4, 12,
    4, 5,
    12, 6,
    7, 12,
    7, 8,
    12, 9,
    10, 12,
    10, 11,
    11, 12,
    12, 12,
    0, 0,
    0, 0,
    0, 0,
    0, 0,
    0, 0,
    0, 0,
    0, 0,
    0, 0,
    0, 0,

  % k = 2
    1, 2,
    3, 15,
    3, 4,
    5, 15,
    5, 6,
    7, 15,
    7, 8,
    15, 9,
    15, 10,
    15, 11,
    15, 12,
    13, 15,
    13, 14,
    14, 15,
    15, 15,
    0, 0,
    0, 0,
    0, 0,
    0, 0,
    0, 0,
    0, 0,

  % k = 3
    1, 2,
    3, 20,
    3, 4,
    20, 5,
    6, 20,
    6, 7,
    8, 20,
    8, 9,
    20, 10,
    20, 11,
    20, 12,
    13, 20,
    13, 14,
    15, 20,
    15, 16,
    20, 17,
    18, 20,
    18, 19,
    19, 20,
    20, 20,
    0, 0,

  % k = 4
    1, 2,
    13, 3,
    13, 4,
    13, 5,
    13, 6,
    13, 7,
    13, 8,
    9, 13,
    9, 10,
    11, 13,
    11, 12,
    12, 13,
    13, 13,
    0, 0,
    0, 0,
    0, 0,
    0, 0,
    0, 0,
    0, 0,
    0, 0,
    0, 0,

  % k = 5
    1, 2,
    18, 3,
    18, 4,
    18, 5,
    18, 6,
    7, 18,
    7, 8,
    9, 18,
    9, 10,
    11, 18,
    11, 12,
    13, 18,
    13, 14,
    18, 15,
    18, 16,
    18, 17,
    17, 18,
    18, 18,
    0, 0,
    0, 0,
    0, 0,

  % k = 6
    1, 2,
    18, 3,
    4, 18,
    4, 5,
    18, 6,
    18, 7,
    18, 8,
    9, 18,
    9, 10,
    18, 11,
    12, 18,
    12, 13,
    18, 14,
    15, 18,
    15, 16,
    18, 17,
    17, 18,
    18, 18,
    0, 0,
    0, 0,
    0, 0,

  % k = 7
    1, 2,
    3, 12,
    3, 4,
    12, 5,
    6, 12,
    6, 7,
    12, 8,
    9, 12,
    9, 10,
    12, 11,
    11, 12,
    12, 12,
    0, 0,
    0, 0,
    0, 0,
    0, 0,
    0, 0,
    0, 0,
    0, 0,
    0, 0,
    0, 0,

  % k = 8
    1, 2,
    15, 3,
    4, 15,
    4, 5,
    15, 6,
    7, 15,
    7, 8,
    9, 15,
    9, 10,
    11, 15,
    11, 12,
    15, 13,
    15, 14,
    14, 15,
    15, 15,
    0, 0,
    0, 0,
    0, 0,
    0, 0,
    0, 0,
    0, 0,

  % k = 9
    1, 2,
    15, 3,
    15, 4,
    5, 15,
    5, 6,
    7, 15,
    7, 8,
    9, 15,
    9, 10,
    15, 11,
    15, 12,
    15, 13,
    15, 14,
    14, 15,
    15, 15,
    0, 0,
    0, 0,
    0, 0,
    0, 0,
    0, 0,
    0, 0,

  % k = 10
    1, 2,
    3, 16,
    3, 4,
    16, 5,
    6, 16,
    6, 7,
    8, 16,
    8, 9,
    10, 16,
    10, 11,
    12, 16,
    12, 13,
    14, 16,
    14, 15,
    15, 16,
    16, 16,
    0, 0,
    0, 0,
    0, 0,
    0, 0,
    0, 0,

  % k = 11
    1, 2,
    3, 14,
    3, 4,
    5, 14,
    5, 6,
    7, 14,
    7, 8,
    14, 9,
    14, 10,
    11, 14,
    11, 12,
    14, 13,
    13, 14,
    14, 14,
    0, 0,
    0, 0,
    0, 0,
    0, 0,
    0, 0,
    0, 0,
    0, 0,

  % k = 12
    1, 2,
    16, 3,
    4, 16,
    4, 5,
    16, 6,
    16, 7,
    16, 8,
    9, 16,
    9, 10,
    11, 16,
    11, 12,
    13, 16,
    13, 14,
    16, 15,
    15, 16,
    16, 16,
    0, 0,
    0, 0,
    0, 0,
    0, 0,
    0, 0,

  % k = 13
    1, 2,
    3, 18,
    3, 4,
    5, 18,
    5, 6,
    7, 18,
    7, 8,
    9, 18,
    9, 10,
    18, 11,
    12, 18,
    12, 13,
    14, 18,
    14, 15,
    18, 16,
    18, 17,
    17, 18,
    18, 18,
    0, 0,
    0, 0,
    0, 0,

  % k = 14
    1, 2,
    3, 17,
    3, 4,
    5, 17,
    5, 6,
    7, 17,
    7, 8,
    9, 17,
    9, 10,
    17, 11,
    17, 12,
    13, 17,
    13, 14,
    15, 17,
    15, 16,
    16, 17,
    17, 17,
    0, 0,
    0, 0,
    0, 0,
    0, 0,

  % k = 15
    1, 2,
    3, 15,
    3, 4,
    15, 5,
    6, 15,
    6, 7,
    8, 15,
    8, 9,
    15, 10,
    11, 15,
    11, 12,
    13, 15,
    13, 14,
    14, 15,
    15, 15,
    0, 0,
    0, 0,
    0, 0,
    0, 0,
    0, 0,
    0, 0,

  % k = 16
    1, 2,
    3, 20,
    3, 4,
    5, 20,
    5, 6,
    20, 7,
    8, 20,
    8, 9,
    20, 10,
    11, 20,
    11, 12,
    13, 20,
    13, 14,
    20, 15,
    20, 16,
    20, 17,
    20, 18,
    20, 19,
    19, 20,
    20, 20,
    0, 0,

  % k = 17
    1, 2,
    3, 20,
    3, 4,
    20, 5,
    20, 6,
    7, 20,
    7, 8,
    9, 20,
    9, 10,
    11, 20,
    11, 12,
    13, 20,
    13, 14,
    20, 15,
    16, 20,
    16, 17,
    18, 20,
    18, 19,
    19, 20,
    20, 20,
    0, 0,

  % k = 18
    1, 2,
    13, 3,
    4, 13,
    4, 5,
    6, 13,
    6, 7,
    13, 8,
    13, 9,
    13, 10,
    11, 13,
    11, 12,
    12, 13,
    13, 13,
    0, 0,
    0, 0,
    0, 0,
    0, 0,
    0, 0,
    0, 0,
    0, 0,
    0, 0,

  % k = 19
    1, 2,
    16, 3,
    4, 16,
    4, 5,
    6, 16,
    6, 7,
    8, 16,
    8, 9,
    16, 10,
    16, 11,
    16, 12,
    13, 16,
    13, 14,
    16, 15,
    15, 16,
    16, 16,
    0, 0,
    0, 0,
    0, 0,
    0, 0,
    0, 0,

  % k = 20
    1, 2,
    3, 15,
    3, 4,
    15, 5,
    6, 15,
    6, 7,
    15, 8,
    15, 9,
    10, 15,
    10, 11,
    12, 15,
    12, 13,
    15, 14,
    14, 15,
    15, 15,
    0, 0,
    0, 0,
    0, 0,
    0, 0,
    0, 0,
    0, 0
]);
row_d_nfa = array3d(1..20, 1..21, 1..2, [
  % k = 1
    {}, {},
    {}, {},
    {}, {},
    {}, {},
    {}, {},
    {}, {},
    {}, {},
    {}, {},
    {}, {},
    {}, {},
    {}, {},
    {}, {},
    {}, {},
    {}, {},
    {}, {},
    {}, {},
    {}, {},
    {}, {},
    {}, {},
    {}, {},
    {}, {},

  % k = 2
    {}, {},
    {}, {},
    {}, {},
    {}, {},
    {}, {},
    {}, {},
    {}, {},
    {}, {},
    {}, {},
    {}, {},
    {}, {},
    {}, {},
    {}, {},
    {}, {},
    {}, {},
    {}, {},
    {}, {},
    {}, {},
    {}, {},
    {}, {},
    {}, {},

  % k = 3
    {}, {},
    {}, {},
    {}, {},
    {}, {},
    {}, {},
    {}, {},
    {}, {},
    {}, {},
    {}, {},
    {}, {},
    {}, {},
    {}, {},
    {}, {},
    {}, {},
    {}, {},
    {}, {},
    {}, {},
    {}, {},
    {}, {},
    {}, {},
    {}, {},

  % k = 4
    {}, {},
    {}, {},
    {}, {},
    {}, {},
    {}, {},
    {}, {},
    {}, {},
    {}, {},
    {}, {},
    {}, {},
    {}, {},
    {}, {},
    {}, {},
    {}, {},
    {}, {},
    {}, {},
    {}, {},
    {}, {},
    {}, {},
    {}, {},
    {}, {},

  % k = 5
    {}, {},
    {}, {},
    {}, {},
    {}, {},
    {}, {},
    {}, {},
    {}, {},
    {}, {},
    {}, {},
    {}, {},
    {}, {},
    {}, {},
    {}, {},
    {}, {},
    {}, {},
    {}, {},
    {}, {},
    {}, {},
    {}, {},
    {}, {},
    {}, {},

  % k = 6
    {}, {},
    {}, {},
    {}, {},
    {}, {},
    {}, {},
    {}, {},
    {}, {},
    {}, {},
    {}, {},
    {}, {},
    {}, {},
    {}, {},
    {}, {},
    {}, {},
    {}, {},
    {}, {},
    {}, {},
    {}, {},
    {}, {},
    {}, {},
    {}, {},

  % k = 7
    {}, {},
    {}, {},
    {}, {},
    {}, {},
    {}, {},
    {}, {},
    {}, {},
    {}, {},
    {}, {},
    {}, {},
    {}, {},
    {}, {},
    {}, {},
    {}, {},
    {}, {},
    {}, {},
    {}, {},
    {}, {},
    {}, {},
    {}, {},
    {}, {},

  % k = 8
    {}, {},
    {}, {},
    {}, {},
    {}, {},
    {}, {},
    {}, {},
    {}, {},
    {}, {},
    {}, {},
    {}, {},
    {}, {},
    {}, {},
    {}, {},
    {}, {},
    {}, {},
    {}, {},
    {}, {},
    {}, {},
    {}, {},
    {}, {},
    {}, {},

  % k = 9
    {}, {},
    {}, {},
    {}, {},
    {}, {},
    {}, {},
    {}, {},
    {}, {},
    {}, {},
    {}, {},
    {}, {},
    {}, {},
    {}, {},
    {}, {},
    {}, {},
    {}, {},
    {}, {},
    {}, {},
    {}, {},
    {}, {},
    {}, {},
    {}, {},

  % k = 10
    {}, {},
    {}, {},
    {}, {},
    {}, {},
    {}, {},
    {}, {},
    {}, {},
    {}, {},
    {}, {},
    {}, {},
    {}, {},
    {}, {},
    {}, {},
    {}, {},
    {}, {},
    {}, {},
    {}, {},
    {}, {},
    {}, {},
    {}, {},
    {}, {},

  % k = 11
    {}, {},
    {}, {},
    {}, {},
    {}, {},
    {}, {},
    {}, {},
    {}, {},
    {}, {},
    {}, {},
    {}, {},
    {}, {},
    {}, {},
    {}, {},
    {}, {},
    {}, {},
    {}, {},
    {}, {},
    {}, {},
    {}, {},
    {}, {},
    {}, {},

  % k = 12
    {}, {},
    {}, {},
    {}, {},
    {}, {},
    {}, {},
    {}, {},
    {}, {},
    {}, {},
    {}, {},
    {}, {},
    {}, {},
    {}, {},
    {}, {},
    {}, {},
    {}, {},
    {}, {},
    {}, {},
    {}, {},
    {}, {},
    {}, {},
    {}, {},

  % k = 13
    {}, {},
    {}, {},
    {}, {},
    {}, {},
    {}, {},
    {}, {},
    {}, {},
    {}, {},
    {}, {},
    {}, {},
    {}, {},
    {}, {},
    {}, {},
    {}, {},
    {}, {},
    {}, {},
    {}, {},
    {}, {},
    {}, {},
    {}, {},
    {}, {},

  % k = 14
    {}, {},
    {}, {},
    {}, {},
    {}, {},
    {}, {},
    {}, {},
    {}, {},
    {}, {},
    {}, {},
    {}, {},
    {}, {},
    {}, {},
    {}, {},
    {}, {},
    {}, {},
    {}, {},
    {}, {},
    {}, {},
    {}, {},
    {}, {},
    {}, {},

  % k = 15
    {}, {},
    {}, {},
    {}, {},
    {}, {},
    {}, {},
    {}, {},
    {}, {},
    {}, {},
    {}, {},
    {}, {},
    {}, {},
    {}, {},
    {}, {},
    {}, {},
    {}, {},
    {}, {},
    {}, {},
    {}, {},
    {}, {},
    {}, {},
    {}, {},

  % k = 16
    {}, {},
    {}, {},
    {}, {},
    {}, {},
    {}, {},
    {}, {},
    {}, {},
    {}, {},
    {}, {},
    {}, {},
    {}, {},
    {}, {},
    {}, {},
    {}, {},
    {}, {},
    {}, {},
    {}, {},
    {}, {},
    {}, {},
    {}, {},
    {}, {},

  % k = 17
    {}, {},
    {}, {},
    {}, {},
    {}, {},
    {}, {},
    {}, {},
    {}, {},
    {}, {},
    {}, {},
    {}, {},
    {}, {},
    {}, {},
    {}, {},
    {}, {},
    {}, {},
    {}, {},
    {}, {},
    {}, {},
    {}, {},
    {}, {},
    {}, {},

  % k = 18
    {}, {},
    {}, {},
    {}, {},
    {}, {},
    {}, {},
    {}, {},
    {}, {},
    {}, {},
    {}, {},
    {}, {},
    {}, {},
    {}, {},
    {}, {},
    {}, {},
    {}, {},
    {}, {},
    {}, {},
    {}, {},
    {}, {},
    {}, {},
    {}, {},

  % k = 19
    {}, {},
    {}, {},
    {}, {},
    {}, {},
    {}, {},
    {}, {},
    {}, {},
    {}, {},
    {}, {},
    {}, {},
    {}, {},
    {}, {},
    {}, {},
    {}, {},
    {}, {},
    {}, {},
    {}, {},
    {}, {},
    {}, {},
    {}, {},
    {}, {},

  % k = 20
    {}, {},
    {}, {},
    {}, {},
    {}, {},
    {}, {},
    {}, {},
    {}, {},
    {}, {},
    {}, {},
    {}, {},
    {}, {},
    {}, {},
    {}, {},
    {}, {},
    {}, {},
    {}, {},
    {}, {},
    {}, {},
    {}, {},
    {}, {},
    {}, {}
]);
col_d_dfa = array3d(1..20, 1..21, 1..2, [
  % k = 1
    1, 2,
    3, 15,
    3, 4,
    5, 15,
    5, 6,
    7, 15,
    7, 8,
    15, 9,
    15, 10,
    15, 11,
    15, 12,
    15, 13,
    15, 14,
    14, 15,
    15, 15,
    0, 0,
    0, 0,
    0, 0,
    0, 0,
    0, 0,
    0, 0,

  % k = 2
    1, 2,
    14, 3,
    14, 4,
    14, 5,
    6, 14,
    6, 7,
    8, 14,
    8, 9,
    14, 10,
    11, 14,
    11, 12,
    14, 13,
    13, 14,
    14, 14,
    0, 0,
    0, 0,
    0, 0,
    0, 0,
    0, 0,
    0, 0,
    0, 0,

  % k = 3
    1, 2,
    3, 21,
    3, 4,
    21, 5,
    21, 6,
    21, 7,
    8, 21,
    8, 9,
    21, 10,
    21, 11,
    12, 21,
    12, 13,
    14, 21,
    14, 15,
    16, 21,
    16, 17,
    21, 18,
    19, 21,
    19, 20,
    20, 21,
    21, 21,

  % k = 4
    1, 2,
    19, 3,
    19, 4,
    19, 5,
    19, 6,
    7, 19,
    7, 8,
    19, 9,
    19, 10,
    19, 11,
    12, 19,
    12, 13,
    14, 19,
    14, 15,
    16, 19,
    16, 17,
    19, 18,
    18, 19,
    19, 19,
    0, 0,
    0, 0,

  % k = 5
    1, 2,
    10, 3,
    4, 10,
    4, 5,
    10, 6,
    10, 7,
    10, 8,
    10, 9,
    9, 10,
    10, 10,
    0, 0,
    0, 0,
    0, 0,
    0, 0,
    0, 0,
    0, 0,
    0, 0,
    0, 0,
    0, 0,
    0, 0,
    0, 0,

  % k = 6
    1, 2,
    14, 3,
    14, 4,
    5, 14,
    5, 6,
    7, 14,
    7, 8,
    9, 14,
    9, 10,
    11, 14,
    11, 12,
    14, 13,
    13, 14,
    14, 14,
    0, 0,
    0, 0,
    0, 0,
    0, 0,
    0, 0,
    0, 0,
    0, 0,

  % k = 7
    1, 2,
    3, 13,
    3, 4,
    13, 5,
    13, 6,
    7, 13,
    7, 8,
    9, 13,
    9, 10,
    11, 13,
    11, 12,
    12, 13,
    13, 13,
    0, 0,
    0, 0,
    0, 0,
    0, 0,
    0, 0,
    0, 0,
    0, 0,
    0, 0,

  % k = 8
    1, 2,
    16, 3,
    16, 4,
    16, 5,
    6, 16,
    6, 7,
    8, 16,
    8, 9,
    10, 16,
    10, 11,
    12, 16,
    12, 13,
    14, 16,
    14, 15,
    15, 16,
    16, 16,
    0, 0,
    0, 0,
    0, 0,
    0, 0,
    0, 0,

  % k = 9
    1, 2,
    3, 12,
    3, 4,
    12, 5,
    6, 12,
    6, 7,
    12, 8,
    9, 12,
    9, 10,
    12, 11,
    11, 12,
    12, 12,
    0, 0,
    0, 0,
    0, 0,
    0, 0,
    0, 0,
    0, 0,
    0, 0,
    0, 0,
    0, 0,

  % k = 10
    1, 2,
    3, 16,
    3, 4,
    5, 16,
    5, 6,
    7, 16,
    7, 8,
    9, 16,
    9, 10,
    11, 16,
    11, 12,
    16, 13,
    14, 16,
    14, 15,
    15, 16,
    16, 16,
    0, 0,
    0, 0,
    0, 0,
    0, 0,
    0, 0,

  % k = 11
    1, 2,
    20, 3,
    4, 20,
    4, 5,
    6, 20,
    6, 7,
    20, 8,
    20, 9,
    10, 20,
    10, 11,
    20, 12,
    20, 13,
    20, 14,
    20, 15,
    16, 20,
    16, 17,
    20, 18,
    20, 19,
    19, 20,
    20, 20,
    0, 0,

  % k = 12
    1, 2,
    3, 15,
    3, 4,
    5, 15,
    5, 6,
    7, 15,
    7, 8,
    15, 9,
    10, 15,
    10, 11,
    15, 12,
    15, 13,
    15, 14,
    14, 15,
    15, 15,
    0, 0,
    0, 0,
    0, 0,
    0, 0,
    0, 0,
    0, 0,

  % k = 13
    1, 2,
    12, 3,
    4, 12,
    4, 5,
    6, 12,
    6, 7,
    8, 12,
    8, 9,
    12, 10,
    12, 11,
    11, 12,
    12, 12,
    0, 0,
    0, 0,
    0, 0,
    0, 0,
    0, 0,
    0, 0,
    0, 0,
    0, 0,
    0, 0,

  % k = 14
    1, 2,
    13, 3,
    4, 13,
    4, 5,
    6, 13,
    6, 7,
    8, 13,
    8, 9,
    10, 13,
    10, 11,
    13, 12,
    12, 13,
    13, 13,
    0, 0,
    0, 0,
    0, 0,
    0, 0,
    0, 0,
    0, 0,
    0, 0,
    0, 0,

  % k = 15
    1, 2,
    18, 3,
    18, 4,
    18, 5,
    6, 18,
    6, 7,
    8, 18,
    8, 9,
    18, 10,
    18, 11,
    12, 18,
    12, 13,
    18, 14,
    18, 15,
    16, 18,
    16, 17,
    17, 18,
    18, 18,
    0, 0,
    0, 0,
    0, 0,

  % k = 16
    1, 2,
    3, 15,
    3, 4,
    15, 5,
    15, 6,
    7, 15,
    7, 8,
    9, 15,
    9, 10,
    11, 15,
    11, 12,
    15, 13,
    15, 14,
    14, 15,
    15, 15,
    0, 0,
    0, 0,
    0, 0,
    0, 0,
    0, 0,
    0, 0,

  % k = 17
    1, 2,
    13, 3,
    13, 4,
    5, 13,
    5, 6,
    13, 7,
    13, 8,
    13, 9,
    10, 13,
    10, 11,
    13, 12,
    12, 13,
    13, 13,
    0, 0,
    0, 0,
    0, 0,
    0, 0,
    0, 0,
    0, 0,
    0, 0,
    0, 0,

  % k = 18
    1, 2,
    3, 14,
    3, 4,
    5, 14,
    5, 6,
    14, 7,
    8, 14,
    8, 9,
    14, 10,
    11, 14,
    11, 12,
    14, 13,
    13, 14,
    14, 14,
    0, 0,
    0, 0,
    0, 0,
    0, 0,
    0, 0,
    0, 0,
    0, 0,

  % k = 19
    1, 2,
    3, 19,
    3, 4,
    19, 5,
    19, 6,
    19, 7,
    19, 8,
    9, 19,
    9, 10,
    11, 19,
    11, 12,
    13, 19,
    13, 14,
    19, 15,
    19, 16,
    19, 17,
    19, 18,
    18, 19,
    19, 19,
    0, 0,
    0, 0,

  % k = 20
    1, 2,
    3, 18,
    3, 4,
    18, 5,
    18, 6,
    18, 7,
    18, 8,
    18, 9,
    10, 18,
    10, 11,
    12, 18,
    12, 13,
    18, 14,
    15, 18,
    15, 16,
    18, 17,
    17, 18,
    18, 18,
    0, 0,
    0, 0,
    0, 0
]);
col_d_nfa = array3d(1..20, 1..21, 1..2, [
  % k = 1
    {}, {},
    {}, {},
    {}, {},
    {}, {},
    {}, {},
    {}, {},
    {}, {},
    {}, {},
    {}, {},
    {}, {},
    {}, {},
    {}, {},
    {}, {},
    {}, {},
    {}, {},
    {}, {},
    {}, {},
    {}, {},
    {}, {},
    {}, {},
    {}, {},

  % k = 2
    {}, {},
    {}, {},
    {}, {},
    {}, {},
    {}, {},
    {}, {},
    {}, {},
    {}, {},
    {}, {},
    {}, {},
    {}, {},
    {}, {},
    {}, {},
    {}, {},
    {}, {},
    {}, {},
    {}, {},
    {}, {},
    {}, {},
    {}, {},
    {}, {},

  % k = 3
    {}, {},
    {}, {},
    {}, {},
    {}, {},
    {}, {},
    {}, {},
    {}, {},
    {}, {},
    {}, {},
    {}, {},
    {}, {},
    {}, {},
    {}, {},
    {}, {},
    {}, {},
    {}, {},
    {}, {},
    {}, {},
    {}, {},
    {}, {},
    {}, {},

  % k = 4
    {}, {},
    {}, {},
    {}, {},
    {}, {},
    {}, {},
    {}, {},
    {}, {},
    {}, {},
    {}, {},
    {}, {},
    {}, {},
    {}, {},
    {}, {},
    {}, {},
    {}, {},
    {}, {},
    {}, {},
    {}, {},
    {}, {},
    {}, {},
    {}, {},

  % k = 5
    {}, {},
    {}, {},
    {}, {},
    {}, {},
    {}, {},
    {}, {},
    {}, {},
    {}, {},
    {}, {},
    {}, {},
    {}, {},
    {}, {},
    {}, {},
    {}, {},
    {}, {},
    {}, {},
    {}, {},
    {}, {},
    {}, {},
    {}, {},
    {}, {},

  % k = 6
    {}, {},
    {}, {},
    {}, {},
    {}, {},
    {}, {},
    {}, {},
    {}, {},
    {}, {},
    {}, {},
    {}, {},
    {}, {},
    {}, {},
    {}, {},
    {}, {},
    {}, {},
    {}, {},
    {}, {},
    {}, {},
    {}, {},
    {}, {},
    {}, {},

  % k = 7
    {}, {},
    {}, {},
    {}, {},
    {}, {},
    {}, {},
    {}, {},
    {}, {},
    {}, {},
    {}, {},
    {}, {},
    {}, {},
    {}, {},
    {}, {},
    {}, {},
    {}, {},
    {}, {},
    {}, {},
    {}, {},
    {}, {},
    {}, {},
    {}, {},

  % k = 8
    {}, {},
    {}, {},
    {}, {},
    {}, {},
    {}, {},
    {}, {},
    {}, {},
    {}, {},
    {}, {},
    {}, {},
    {}, {},
    {}, {},
    {}, {},
    {}, {},
    {}, {},
    {}, {},
    {}, {},
    {}, {},
    {}, {},
    {}, {},
    {}, {},

  % k = 9
    {}, {},
    {}, {},
    {}, {},
    {}, {},
    {}, {},
    {}, {},
    {}, {},
    {}, {},
    {}, {},
    {}, {},
    {}, {},
    {}, {},
    {}, {},
    {}, {},
    {}, {},
    {}, {},
    {}, {},
    {}, {},
    {}, {},
    {}, {},
    {}, {},

  % k = 10
    {}, {},
    {}, {},
    {}, {},
    {}, {},
    {}, {},
    {}, {},
    {}, {},
    {}, {},
    {}, {},
    {}, {},
    {}, {},
    {}, {},
    {}, {},
    {}, {},
    {}, {},
    {}, {},
    {}, {},
    {}, {},
    {}, {},
    {}, {},
    {}, {},

  % k = 11
    {}, {},
    {}, {},
    {}, {},
    {}, {},
    {}, {},
    {}, {},
    {}, {},
    {}, {},
    {}, {},
    {}, {},
    {}, {},
    {}, {},
    {}, {},
    {}, {},
    {}, {},
    {}, {},
    {}, {},
    {}, {},
    {}, {},
    {}, {},
    {}, {},

  % k = 12
    {}, {},
    {}, {},
    {}, {},
    {}, {},
    {}, {},
    {}, {},
    {}, {},
    {}, {},
    {}, {},
    {}, {},
    {}, {},
    {}, {},
    {}, {},
    {}, {},
    {}, {},
    {}, {},
    {}, {},
    {}, {},
    {}, {},
    {}, {},
    {}, {},

  % k = 13
    {}, {},
    {}, {},
    {}, {},
    {}, {},
    {}, {},
    {}, {},
    {}, {},
    {}, {},
    {}, {},
    {}, {},
    {}, {},
    {}, {},
    {}, {},
    {}, {},
    {}, {},
    {}, {},
    {}, {},
    {}, {},
    {}, {},
    {}, {},
    {}, {},

  % k = 14
    {}, {},
    {}, {},
    {}, {},
    {}, {},
    {}, {},
    {}, {},
    {}, {},
    {}, {},
    {}, {},
    {}, {},
    {}, {},
    {}, {},
    {}, {},
    {}, {},
    {}, {},
    {}, {},
    {}, {},
    {}, {},
    {}, {},
    {}, {},
    {}, {},

  % k = 15
    {}, {},
    {}, {},
    {}, {},
    {}, {},
    {}, {},
    {}, {},
    {}, {},
    {}, {},
    {}, {},
    {}, {},
    {}, {},
    {}, {},
    {}, {},
    {}, {},
    {}, {},
    {}, {},
    {}, {},
    {}, {},
    {}, {},
    {}, {},
    {}, {},

  % k = 16
    {}, {},
    {}, {},
    {}, {},
    {}, {},
    {}, {},
    {}, {},
    {}, {},
    {}, {},
    {}, {},
    {}, {},
    {}, {},
    {}, {},
    {}, {},
    {}, {},
    {}, {},
    {}, {},
    {}, {},
    {}, {},
    {}, {},
    {}, {},
    {}, {},

  % k = 17
    {}, {},
    {}, {},
    {}, {},
    {}, {},
    {}, {},
    {}, {},
    {}, {},
    {}, {},
    {}, {},
    {}, {},
    {}, {},
    {}, {},
    {}, {},
    {}, {},
    {}, {},
    {}, {},
    {}, {},
    {}, {},
    {}, {},
    {}, {},
    {}, {},

  % k = 18
    {}, {},
    {}, {},
    {}, {},
    {}, {},
    {}, {},
    {}, {},
    {}, {},
    {}, {},
    {}, {},
    {}, {},
    {}, {},
    {}, {},
    {}, {},
    {}, {},
    {}, {},
    {}, {},
    {}, {},
    {}, {},
    {}, {},
    {}, {},
    {}, {},

  % k = 19
    {}, {},
    {}, {},
    {}, {},
    {}, {},
    {}, {},
    {}, {},
    {}, {},
    {}, {},
    {}, {},
    {}, {},
    {}, {},
    {}, {},
    {}, {},
    {}, {},
    {}, {},
    {}, {},
    {}, {},
    {}, {},
    {}, {},
    {}, {},
    {}, {},

  % k = 20
    {}, {},
    {}, {},
    {}, {},
    {}, {},
    {}, {},
    {}, {},
    {}, {},
    {}, {},
    {}, {},
    {}, {},
    {}, {},
    {}, {},
    {}, {},
    {}, {},
    {}, {},
    {}, {},
    {}, {},
    {}, {},
    {}, {},
    {}, {},
    {}, {}
]);
